\ENCODING=ISO-8859-1
\Problem name: IloCplex

Minimize
 obj1: 3 x_a_0 + 2 x_a_1 + 2 x_a_2 + 3 x_a_3 + x_a_4 + 3 x_a_5 + 2 x_a_6
       + 3 x_a_7 + 2 x_a_8 + 2 x_a_9 + x_a_10 + x_a_11 + 3 x_a_12 + 3 x_a_13
       + 3 x_a_14 + x_a_15 + x_a_16 + 3 x_a_17 + x_a_18 + x_a_19 + 2 x_a_20
       + 3 x_a_21 + 2 x_a_22 + x_a_23 + 2 x_a_24 + 2 x_a_25 + 3 x_a_26 + x_a_27
       + x_a_28 + x_a_29 + x_a_30 + x_a_31 + 2 x_a_32 + x_a_33 + x_a_34
       + x_a_35 + 2 x_a_36 + 3 x_a_37 + x_a_38 + x_a_39 + 3 x_a_40 + 2 x_a_41
       + 3 x_a_42 + 2 x_a_43 + 3 x_a_44 + 2 x_a_45 + x_a_46 + 2 x_a_47 + x_a_48
       + 2 x_a_49 + x_a_50 + 3 x_a_51 + 2 x_a_52 + x_a_53 + x_a_54 + x_a_55
       + 2 x_a_56 + 3 x_a_57 + 2 x_a_58 + 3 x_a_59 + 2 x_a_60 + 3 x_a_61
       + 3 x_a_62 + 3 x_a_63 + 3 x_a_64 + x_a_65 + 3 x_a_66 + 2 x_a_67
       + 2 x_a_68 + 3 x_a_69 + 2 x_a_70 + 3 x_a_71 + 3 x_a_72 + 3 x_a_73
       + 2 x_a_74 + 2 x_a_75 + 2 x_a_76 + 2 x_a_77 + 2 x_a_78 + 2 x_a_79
       + 2 x_a_80 + 3 x_a_81 + x_a_82 + 3 x_a_83 + 3 x_a_84 + 2 x_a_85 + x_a_86
       + x_a_87 + x_a_88 + 2 x_a_89 + 3 x_a_90 + x_a_91 + x_a_92 + x_a_93
       + 3 x_a_94 + x_a_95 + 2 x_a_96 + 2 x_a_97 + 3 x_a_98 + 2 x_a_99
       + 2 x_a_100 + x_a_101 + 2 x_a_102 + 2 x_a_103 + x_a_104 + x_a_105
       + x_a_106 + 2 x_a_107 + 2 x_a_108 + 2 x_a_109 + x_a_110 + 2 x_a_111
       + 2 x_a_112 + x_a_113 + 2 x_a_114 + 3 x_a_115 + 3 x_a_116 + x_a_117
       + 3 x_a_118 + 2 x_a_119 + 2 x_a_120 + 2 x_a_121 + 2 x_a_122 + x_a_123
       + x_a_124 + 3 x_a_125 + 3 x_a_126 + x_a_127 + 3 x_a_128 + x_a_129
       + 3 x_a_130 + 3 x_a_131 + 2 x_a_132 + x_a_133 + 2 x_a_134 + 3 x_a_135
       + x_a_136 + 2 x_a_137 + 2 x_a_138 + 3 x_a_139 + 2 x_a_140 + 2 x_a_141
       + 3 x_a_142 + x_a_143 + x_a_144 + 3 x_a_145 + 3 x_a_146 + 3 x_a_147
       + 3 x_a_148 + 2 x_a_149 + 3 x_a_150 + x_a_151 + 3 x_a_152 + 3 x_a_153
       + x_a_154 + x_a_155 + 3 x_a_156 + x_a_157 + x_a_158 + 3 x_a_159
       + x_a_160 + 3 x_a_161 + 3 x_a_162 + 3 x_a_163 + 3 x_a_164 + 3 x_a_165
       + 3 x_a_166 + 2 x_a_167 + 3 x_a_168 + 2 x_a_169 + x_a_170 + 2 x_a_171
       + 3 x_a_172 + x_a_173 + x_a_174 + x_a_175 + x_a_176 + 3 x_a_177
       + 2 x_a_178 + x_a_179 + 3 x_a_180 + x_a_181 + 2 x_a_182 + 2 x_a_183
       + 2 x_a_184 + 3 x_a_185 + 2 x_a_186 + 3 x_a_187 + 3 x_a_188 + 2 x_a_189
       + 2 x_a_190 + x_a_191 + 3 x_a_192 + 3 x_a_193 + 3 x_a_194 + x_a_195
       + x_a_196 + 2 x_a_197 + 3 x_a_198 + 3 x_a_199 + 3 x_a_200 + 2 x_a_201
       + x_a_202 + x_a_203 + 2 x_a_204 + x_a_205 + 3 x_a_206 + 2 x_a_207
       + x_a_208 + 2 x_a_209 + x_a_210 + 2 x_a_211 + 2 x_a_212 + x_a_213
       + 2 x_a_214 + 3 x_a_215 + x_a_216 + 3 x_a_217 + 3 x_a_218 + 3 x_a_219
       + 3 x_a_220 + 3 x_a_221 + x_a_222 + 2 x_a_223 + 3 x_a_224 + 3 x_a_225
       + x_a_226 + 2 x_a_227 + 3 x_a_228 + 2 x_a_229 + 3 x_a_230 + 3 x_a_231
       + x_a_232 + x_a_233 + 2 x_a_234 + x_a_235 + 2 x_a_236 + x_a_237
       + x_a_238 + 2 x_a_239 + 3 x_a_240 + 2 x_a_241 + x_a_242 + 3 x_a_243
       + 3 x_a_244 + 3 x_a_245 + x_a_246 + 2 x_a_247 + 1000000000 x_a_248
       + 1000000000 x_a_249 + 1000000000 x_a_250 + 1000000000 x_a_251
       + 1000000000 x_a_252 + 1000000000 x_a_253 + 1000000000 x_a_254
       + 1000000000 x_a_255 + 1000000000 x_a_256 + 1000000000 x_a_257
       + 1000000000 x_a_258 + 1000000000 x_a_259 + 1000000000 x_a_260
       + 1000000000 x_a_261 + 1000000000 x_a_262 + 1000000000 x_a_263
       + 1000000000 x_a_264 + 1000000000 x_a_265 + 1000000000 x_a_266
       + 1000000000 x_a_267 + 1000000000 x_a_268 + 1000000000 x_a_269
       + 1000000000 x_a_270 + 1000000000 x_a_271 + 10000 x_a_272
Subject To
 c1:   y_a_248 + y_a_249 + y_a_250 + y_a_251 + y_a_252 + y_a_253 + y_a_254
       + y_a_255 + y_a_256 + y_a_257 + y_a_258 + y_a_259 <= 74.4
 c2:   y_a_0 + y_a_1 + y_a_2 + y_a_3 + y_a_4 + y_a_5 + y_a_6 + y_a_7 + y_a_8
       + y_a_9  = 0
 c3:   - y_a_253 - y_a_0 + y_a_10 + y_a_11 + y_a_12 + y_a_13 + y_a_14 + y_a_15
       + y_a_16 + y_a_17  = 0
 c4:   - y_a_10 + y_a_18 + y_a_19 + y_a_20 + y_a_21 + y_a_22 + y_a_23 + y_a_24
        = 0
 c5:   - y_a_1 + y_a_25 + y_a_26 + y_a_27 + y_a_28 + y_a_29 + y_a_30 + y_a_31
       + y_a_32 + y_a_33 + y_a_262  = 0
 c6:   - y_a_11 - y_a_25 + y_a_34 + y_a_35 + y_a_36 + y_a_37 + y_a_38 + y_a_39
       + y_a_40  = 0
 c7:   - y_a_259 - y_a_18 + y_a_41 + y_a_42 + y_a_43 + y_a_44 + y_a_45  = 0
 c8:   - y_a_2 + y_a_46 + y_a_47 + y_a_48 + y_a_49 + y_a_50 + y_a_51 + y_a_52
       + y_a_53 + y_a_54 + y_a_55 + y_a_56  = 0
 c9:   - y_a_19 - y_a_34 - y_a_46 + y_a_57 + y_a_58 + y_a_59 + y_a_60 + y_a_61
       + y_a_62 + y_a_63 + y_a_64  = 0
 c10:  - y_a_3 - y_a_20 - y_a_41 + y_a_65 + y_a_66 + y_a_67 + y_a_68 + y_a_69
       + y_a_70 + y_a_71 + y_a_72 + y_a_266  = 0
 c11:  - y_a_21 + y_a_73 + y_a_74 + y_a_75 + y_a_76 + y_a_77 + y_a_78  = 0
 c12:  - y_a_12 - y_a_73 + y_a_79 + y_a_80 + y_a_81 + y_a_82 + y_a_83 + y_a_84
        = 0
 c13:  - y_a_57 - y_a_74 + y_a_85 + y_a_86 + y_a_87 + y_a_88 + y_a_268
       + y_a_270  = 0
 c14:  - y_a_4 - y_a_47 + y_a_89 + y_a_90 + y_a_91 + y_a_92 + y_a_93 + y_a_94
        = 0
 c15:  - y_a_5 - y_a_79 - y_a_89 + y_a_95 + y_a_96 + y_a_97 + y_a_98 + y_a_99
       + y_a_100 + y_a_101 + y_a_102 + y_a_103  = 0
 c16:  - y_a_22 + y_a_104 + y_a_105 + y_a_106 + y_a_107 + y_a_108  = 0
 c17:  - y_a_255 - y_a_26 - y_a_65 + y_a_109 + y_a_110 + y_a_111 + y_a_112
       + y_a_113 + y_a_114 + y_a_115 + y_a_116  = 0
 c18:  - y_a_42 - y_a_58 + y_a_117 + y_a_118 + y_a_119 + y_a_120 + y_a_121
       + y_a_122  = 0
 c19:  - y_a_258 - y_a_90 - y_a_104 + y_a_123 + y_a_124 + y_a_125 + y_a_126
        = 0
 c20:  - y_a_43 + y_a_127 + y_a_128 + y_a_129 + y_a_130 + y_a_131  = 0
 c21:  - y_a_66 - y_a_95 - y_a_123 + y_a_132 + y_a_133 + y_a_134 + y_a_135
       + y_a_136 + y_a_137 + y_a_263 + y_a_265  = 0
 c22:  - y_a_132 + y_a_138 + y_a_139 + y_a_140 + y_a_141 + y_a_142  = 0
 c23:  - y_a_256 - y_a_257 - y_a_85 - y_a_109 - y_a_127 + y_a_143 + y_a_144
       + y_a_145 + y_a_146 + y_a_147 + y_a_148 + y_a_149  = 0
 c24:  - y_a_67 - y_a_105 - y_a_110 - y_a_133 + y_a_150 + y_a_151 + y_a_152
       + y_a_153  = 0
 c25:  - y_a_6 - y_a_13 - y_a_48 - y_a_96 - y_a_128 + y_a_154 + y_a_155
       + y_a_156 + y_a_157 + y_a_158 + y_a_159  = 0
 c26:  - y_a_27 - y_a_44 - y_a_49 - y_a_97 + y_a_160 + y_a_161 + y_a_162  = 0
 c27:  - y_a_50 - y_a_59 - y_a_143 - y_a_150 + y_a_163 + y_a_164 + y_a_165
       + y_a_166  = 0
 c28:  - y_a_7 - y_a_91 - y_a_111 + y_a_167 + y_a_168 + y_a_169 + y_a_170
       + y_a_171 + y_a_172  = 0
 c29:  - y_a_35 - y_a_51 - y_a_68 - y_a_134 - y_a_138 - y_a_144 + y_a_173
       + y_a_174 + y_a_175 + y_a_176 + y_a_177  = 0
 c30:  - y_a_106 - y_a_129 - y_a_135 - y_a_151 - y_a_154 - y_a_160 - y_a_167
       + y_a_178 + y_a_179 + y_a_180 + y_a_181 + y_a_182 + y_a_183  = 0
 c31:  - y_a_14 - y_a_23 - y_a_112 - y_a_168 - y_a_173 - y_a_178 + y_a_184
       + y_a_185 + y_a_186 + y_a_187  = 0
 c32:  - y_a_52 - y_a_117 - y_a_163 - y_a_184 + y_a_188 + y_a_189 + y_a_190
       + y_a_191 + y_a_192 + y_a_269  = 0
 c33:  - y_a_36 - y_a_80 - y_a_107 - y_a_136 - y_a_139 + y_a_193 + y_a_194
       + y_a_195 + y_a_196 + y_a_197  = 0
 c34:  - y_a_28 - y_a_69 - y_a_118 - y_a_155 - y_a_161 - y_a_188 + y_a_198
       + y_a_199 + y_a_200 + y_a_201 + y_a_202  = 0
 c35:  - y_a_29 - y_a_70 - y_a_92 - y_a_169 - y_a_179 - y_a_193 + y_a_203
       + y_a_204 + y_a_205 + y_a_206 + y_a_264 + y_a_271  = 0
 c36:  - y_a_30 - y_a_113 - y_a_140 - y_a_145 - y_a_174 - y_a_189 + y_a_207
       + y_a_208  = 0
 c37:  - y_a_93 - y_a_98 - y_a_156 - y_a_164 - y_a_194 + y_a_209 + y_a_210  = 0
 c38:  - y_a_250 - y_a_71 - y_a_108 - y_a_119 - y_a_137 - y_a_146 - y_a_203
       + y_a_211 + y_a_212 + y_a_213  = 0
 c39:  - y_a_53 - y_a_60 - y_a_81 - y_a_124 - y_a_147 - y_a_157 - y_a_175
       - y_a_185 + y_a_214 + y_a_215 + y_a_216  = 0
 c40:  - y_a_186 - y_a_209 + y_a_217 + y_a_218 + y_a_219  = 0
 c41:  - y_a_31 - y_a_37 - y_a_61 - y_a_99 - y_a_170 + y_a_220 + y_a_221
       + y_a_267  = 0
 c42:  - y_a_252 - y_a_38 - y_a_94 - y_a_114 - y_a_190 - y_a_195 - y_a_214
       + y_a_222 + y_a_223 + y_a_224  = 0
 c43:  - y_a_249 - y_a_75 - y_a_82 - y_a_176 - y_a_187 - y_a_198 - y_a_215
       - y_a_220 + y_a_225 + y_a_226 + y_a_227 + y_a_228  = 0
 c44:  - y_a_248 - y_a_39 - y_a_130 - y_a_148 - y_a_152 - y_a_158 - y_a_180
       - y_a_199 - y_a_204  = 0
 c45:  - y_a_8 - y_a_76 - y_a_207 - y_a_225 + y_a_229 + y_a_230 + y_a_231
       + y_a_232  = 0
 c46:  - y_a_24 - y_a_32 - y_a_54 - y_a_141 - y_a_165 - y_a_208 - y_a_211
       - y_a_229 + y_a_233 + y_a_234 + y_a_235 + y_a_236 + y_a_260  = 0
 c47:  - y_a_254 - y_a_15 - y_a_40 - y_a_55 - y_a_120 - y_a_159 - y_a_191
       - y_a_205 - y_a_212 - y_a_233 + y_a_237 + y_a_238 + y_a_239 + y_a_240
        = 0
 c48:  - y_a_45 - y_a_83 - y_a_149 - y_a_171 - y_a_181 - y_a_200 - y_a_216
       - y_a_226 + y_a_241 + y_a_242  = 0
 c49:  - y_a_62 - y_a_86 - y_a_100 - y_a_166 - y_a_196 - y_a_201 - y_a_217
       - y_a_222 + y_a_243  = 0
 c50:  - y_a_72 - y_a_87 - y_a_237 + y_a_244 + y_a_245  = 0
 c51:  - y_a_131 - y_a_182 - y_a_192 - y_a_206 - y_a_223 + y_a_246  = 0
 c52:  - y_a_88 - y_a_125 - y_a_177 - y_a_183 - y_a_227 - y_a_238  = 0
 c53:  - y_a_56 - y_a_77 - y_a_84 - y_a_101 - y_a_115 - y_a_153 - y_a_213
       - y_a_224 - y_a_230 - y_a_234 - y_a_244  = 0
 c54:  - y_a_33 - y_a_116 - y_a_231 - y_a_235 - y_a_239 + y_a_247  = 0
 c55:  - y_a_16 - y_a_63 - y_a_102 - y_a_202 - y_a_218 - y_a_236  = 0
 c56:  - y_a_9 - y_a_121 - y_a_228 - y_a_241  = 0
 c57:  - y_a_64 - y_a_103 - y_a_162 - y_a_197 - y_a_232 - y_a_242 - y_a_246
       - y_a_247 + y_a_261  = 0
 c58:  - y_a_78 - y_a_122 - y_a_142 - y_a_172 - y_a_210 - y_a_219 - y_a_243
        = 0
 c59:  - y_a_251 - y_a_17 - y_a_126 - y_a_221 - y_a_240 - y_a_245  = 0
 c60:  y_a_248 + y_a_249 + y_a_250 + y_a_251 + y_a_252 + y_a_253 + y_a_254
       + y_a_255 + y_a_256 + y_a_257 + y_a_258 + y_a_259 - y_a_272  = 0
 c61:  - y_a_262 - y_a_266 - y_a_268 - y_a_270 - y_a_263 - y_a_265 - y_a_269
       - y_a_264 - y_a_271 - y_a_267 - y_a_260 - y_a_261 + y_a_272  = 0
 c62:  y_a_0 + 12 x_a_0 <= 12
 c63:  y_a_1 + 4 x_a_1 <= 4
 c64:  y_a_2 + 35 x_a_2 <= 35
 c65:  y_a_3 + 3 x_a_3 <= 3
 c66:  y_a_4 + 28 x_a_4 <= 28
 c67:  y_a_5 + 8 x_a_5 <= 8
 c68:  y_a_6 + 17 x_a_6 <= 17
 c69:  y_a_7 + 28 x_a_7 <= 28
 c70:  y_a_8 + 8 x_a_8 <= 8
 c71:  y_a_9 + 45 x_a_9 <= 45
 c72:  y_a_10 + 39 x_a_10 <= 39
 c73:  y_a_11 + 2 x_a_11 <= 2
 c74:  y_a_12 + 30 x_a_12 <= 30
 c75:  y_a_13 + 25 x_a_13 <= 25
 c76:  y_a_14 + 23 x_a_14 <= 23
 c77:  y_a_15 + 42 x_a_15 <= 42
 c78:  y_a_16 + 15 x_a_16 <= 15
 c79:  y_a_17 + 7 x_a_17 <= 7
 c80:  y_a_18 + x_a_18 <= 1
 c81:  y_a_19 + 36 x_a_19 <= 36
 c82:  y_a_20 + 40 x_a_20 <= 40
 c83:  y_a_21 + 38 x_a_21 <= 38
 c84:  y_a_22 + 8 x_a_22 <= 8
 c85:  y_a_23 + 44 x_a_23 <= 44
 c86:  y_a_24 + 31 x_a_24 <= 31
 c87:  y_a_25 + 20 x_a_25 <= 20
 c88:  y_a_26 + 24 x_a_26 <= 24
 c89:  y_a_27 + 28 x_a_27 <= 28
 c90:  y_a_28 + 22 x_a_28 <= 22
 c91:  y_a_29 + 40 x_a_29 <= 40
 c92:  y_a_30 + 11 x_a_30 <= 11
 c93:  y_a_31 + 31 x_a_31 <= 31
 c94:  y_a_32 + 3 x_a_32 <= 3
 c95:  y_a_33 + 30 x_a_33 <= 30
 c96:  y_a_34 + 40 x_a_34 <= 40
 c97:  y_a_35 + 2 x_a_35 <= 2
 c98:  y_a_36 + 3 x_a_36 <= 3
 c99:  y_a_37 + 3 x_a_37 <= 3
 c100: y_a_38 + 30 x_a_38 <= 30
 c101: y_a_39 + 23 x_a_39 <= 23
 c102: y_a_40 + 35 x_a_40 <= 35
 c103: y_a_41 + 42 x_a_41 <= 42
 c104: y_a_42 + 24 x_a_42 <= 24
 c105: y_a_43 + 15 x_a_43 <= 15
 c106: y_a_44 + 49 x_a_44 <= 49
 c107: y_a_45 + 45 x_a_45 <= 45
 c108: y_a_46 + 20 x_a_46 <= 20
 c109: y_a_47 + 8 x_a_47 <= 8
 c110: y_a_48 + 31 x_a_48 <= 31
 c111: y_a_49 + 22 x_a_49 <= 22
 c112: y_a_50 + 12 x_a_50 <= 12
 c113: y_a_51 + 32 x_a_51 <= 32
 c114: y_a_52 + 30 x_a_52 <= 30
 c115: y_a_53 + 34 x_a_53 <= 34
 c116: y_a_54 + 24 x_a_54 <= 24
 c117: y_a_55 + 12 x_a_55 <= 12
 c118: y_a_56 + 13 x_a_56 <= 13
 c119: y_a_57 + 30 x_a_57 <= 30
 c120: y_a_58 + 36 x_a_58 <= 36
 c121: y_a_59 + 8 x_a_59 <= 8
 c122: y_a_60 + 38 x_a_60 <= 38
 c123: y_a_61 + 13 x_a_61 <= 13
 c124: y_a_62 + 24 x_a_62 <= 24
 c125: y_a_63 + 36 x_a_63 <= 36
 c126: y_a_64 + 10 x_a_64 <= 10
 c127: y_a_65 + 23 x_a_65 <= 23
 c128: y_a_66 + 47 x_a_66 <= 47
 c129: y_a_67 + 22 x_a_67 <= 22
 c130: y_a_68 + 16 x_a_68 <= 16
 c131: y_a_69 + 6 x_a_69 <= 6
 c132: y_a_70 + 38 x_a_70 <= 38
 c133: y_a_71 + 12 x_a_71 <= 12
 c134: y_a_72 + 45 x_a_72 <= 45
 c135: y_a_73 + 40 x_a_73 <= 40
 c136: y_a_74 + 29 x_a_74 <= 29
 c137: y_a_75 + 4 x_a_75 <= 4
 c138: y_a_76 + 15 x_a_76 <= 15
 c139: y_a_77 + 20 x_a_77 <= 20
 c140: y_a_78 + 43 x_a_78 <= 43
 c141: y_a_79 + 11 x_a_79 <= 11
 c142: y_a_80 + 39 x_a_80 <= 39
 c143: y_a_81 + 34 x_a_81 <= 34
 c144: y_a_82 + 12 x_a_82 <= 12
 c145: y_a_83 + 39 x_a_83 <= 39
 c146: y_a_84 + 36 x_a_84 <= 36
 c147: y_a_85 + 3 x_a_85 <= 3
 c148: y_a_86 + 43 x_a_86 <= 43
 c149: y_a_87 + 23 x_a_87 <= 23
 c150: y_a_88 + 45 x_a_88 <= 45
 c151: y_a_89 + 40 x_a_89 <= 40
 c152: y_a_90 + 15 x_a_90 <= 15
 c153: y_a_91 + 42 x_a_91 <= 42
 c154: y_a_92 + 39 x_a_92 <= 39
 c155: y_a_93 + 47 x_a_93 <= 47
 c156: y_a_94 + 28 x_a_94 <= 28
 c157: y_a_95 + 16 x_a_95 <= 16
 c158: y_a_96 + 31 x_a_96 <= 31
 c159: y_a_97 + 25 x_a_97 <= 25
 c160: y_a_98 + x_a_98 <= 1
 c161: y_a_99 + 34 x_a_99 <= 34
 c162: y_a_100 + 45 x_a_100 <= 45
 c163: y_a_101 + 41 x_a_101 <= 41
 c164: y_a_102 + 41 x_a_102 <= 41
 c165: y_a_103 + 21 x_a_103 <= 21
 c166: y_a_104 + 40 x_a_104 <= 40
 c167: y_a_105 + 35 x_a_105 <= 35
 c168: y_a_106 + 32 x_a_106 <= 32
 c169: y_a_107 + 35 x_a_107 <= 35
 c170: y_a_108 + 48 x_a_108 <= 48
 c171: y_a_109 + 41 x_a_109 <= 41
 c172: y_a_110 + 12 x_a_110 <= 12
 c173: y_a_111 + 32 x_a_111 <= 32
 c174: y_a_112 + 15 x_a_112 <= 15
 c175: y_a_113 + 19 x_a_113 <= 19
 c176: y_a_114 + 2 x_a_114 <= 2
 c177: y_a_115 + 20 x_a_115 <= 20
 c178: y_a_116 + 38 x_a_116 <= 38
 c179: y_a_117 + 30 x_a_117 <= 30
 c180: y_a_118 + 18 x_a_118 <= 18
 c181: y_a_119 + 8 x_a_119 <= 8
 c182: y_a_120 + 17 x_a_120 <= 17
 c183: y_a_121 + 35 x_a_121 <= 35
 c184: y_a_122 + 46 x_a_122 <= 46
 c185: y_a_123 + 25 x_a_123 <= 25
 c186: y_a_124 + 12 x_a_124 <= 12
 c187: y_a_125 + 47 x_a_125 <= 47
 c188: y_a_126 + 29 x_a_126 <= 29
 c189: y_a_127 + 42 x_a_127 <= 42
 c190: y_a_128 + 41 x_a_128 <= 41
 c191: y_a_129 + 10 x_a_129 <= 10
 c192: y_a_130 + 11 x_a_130 <= 11
 c193: y_a_131 + 18 x_a_131 <= 18
 c194: y_a_132 + 10 x_a_132 <= 10
 c195: y_a_133 + 21 x_a_133 <= 21
 c196: y_a_134 + 33 x_a_134 <= 33
 c197: y_a_135 + 20 x_a_135 <= 20
 c198: y_a_136 + 34 x_a_136 <= 34
 c199: y_a_137 + 26 x_a_137 <= 26
 c200: y_a_138 + 40 x_a_138 <= 40
 c201: y_a_139 + 39 x_a_139 <= 39
 c202: y_a_140 + 11 x_a_140 <= 11
 c203: y_a_141 + 48 x_a_141 <= 48
 c204: y_a_142 + 16 x_a_142 <= 16
 c205: y_a_143 + 2 x_a_143 <= 2
 c206: y_a_144 + 36 x_a_144 <= 36
 c207: y_a_145 + 4 x_a_145 <= 4
 c208: y_a_146 + 49 x_a_146 <= 49
 c209: y_a_147 + 45 x_a_147 <= 45
 c210: y_a_148 + 21 x_a_148 <= 21
 c211: y_a_149 + 44 x_a_149 <= 44
 c212: y_a_150 + 38 x_a_150 <= 38
 c213: y_a_151 + 9 x_a_151 <= 9
 c214: y_a_152 + 15 x_a_152 <= 15
 c215: y_a_153 + 38 x_a_153 <= 38
 c216: y_a_154 + 16 x_a_154 <= 16
 c217: y_a_155 + 26 x_a_155 <= 26
 c218: y_a_156 + 18 x_a_156 <= 18
 c219: y_a_157 + 46 x_a_157 <= 46
 c220: y_a_158 + 10 x_a_158 <= 10
 c221: y_a_159 + 12 x_a_159 <= 12
 c222: y_a_160 + 4 x_a_160 <= 4
 c223: y_a_161 + 29 x_a_161 <= 29
 c224: y_a_162 + 9 x_a_162 <= 9
 c225: y_a_163 + 41 x_a_163 <= 41
 c226: y_a_164 + 19 x_a_164 <= 19
 c227: y_a_165 + 28 x_a_165 <= 28
 c228: y_a_166 + 33 x_a_166 <= 33
 c229: y_a_167 + 29 x_a_167 <= 29
 c230: y_a_168 + 13 x_a_168 <= 13
 c231: y_a_169 + 29 x_a_169 <= 29
 c232: y_a_170 + 33 x_a_170 <= 33
 c233: y_a_171 + 49 x_a_171 <= 49
 c234: y_a_172 + 20 x_a_172 <= 20
 c235: y_a_173 + 2 x_a_173 <= 2
 c236: y_a_174 + 31 x_a_174 <= 31
 c237: y_a_175 + 38 x_a_175 <= 38
 c238: y_a_176 + 3 x_a_176 <= 3
 c239: y_a_177 + 44 x_a_177 <= 44
 c240: y_a_178 + 39 x_a_178 <= 39
 c241: y_a_179 + 12 x_a_179 <= 12
 c242: y_a_180 + 19 x_a_180 <= 19
 c243: y_a_181 + 2 x_a_181 <= 2
 c244: y_a_182 + 35 x_a_182 <= 35
 c245: y_a_183 + 45 x_a_183 <= 45
 c246: y_a_184 + 29 x_a_184 <= 29
 c247: y_a_185 + 32 x_a_185 <= 32
 c248: y_a_186 + 34 x_a_186 <= 34
 c249: y_a_187 + 37 x_a_187 <= 37
 c250: y_a_188 + 38 x_a_188 <= 38
 c251: y_a_189 + x_a_189 <= 1
 c252: y_a_190 + 10 x_a_190 <= 10
 c253: y_a_191 + 32 x_a_191 <= 32
 c254: y_a_192 + 2 x_a_192 <= 2
 c255: y_a_193 + 49 x_a_193 <= 49
 c256: y_a_194 + 44 x_a_194 <= 44
 c257: y_a_195 + 2 x_a_195 <= 2
 c258: y_a_196 + 3 x_a_196 <= 3
 c259: y_a_197 + 37 x_a_197 <= 37
 c260: y_a_198 + 16 x_a_198 <= 16
 c261: y_a_199 + 32 x_a_199 <= 32
 c262: y_a_200 + 25 x_a_200 <= 25
 c263: y_a_201 + 26 x_a_201 <= 26
 c264: y_a_202 + 48 x_a_202 <= 48
 c265: y_a_203 + 15 x_a_203 <= 15
 c266: y_a_204 + 27 x_a_204 <= 27
 c267: y_a_205 + 18 x_a_205 <= 18
 c268: y_a_206 + 9 x_a_206 <= 9
 c269: y_a_207 + 6 x_a_207 <= 6
 c270: y_a_208 + 19 x_a_208 <= 19
 c271: y_a_209 + 46 x_a_209 <= 46
 c272: y_a_210 + 27 x_a_210 <= 27
 c273: y_a_211 + 11 x_a_211 <= 11
 c274: y_a_212 + 26 x_a_212 <= 26
 c275: y_a_213 + 28 x_a_213 <= 28
 c276: y_a_214 + 38 x_a_214 <= 38
 c277: y_a_215 + 36 x_a_215 <= 36
 c278: y_a_216 + 26 x_a_216 <= 26
 c279: y_a_217 + 16 x_a_217 <= 16
 c280: y_a_218 + 27 x_a_218 <= 27
 c281: y_a_219 + 40 x_a_219 <= 40
 c282: y_a_220 + 25 x_a_220 <= 25
 c283: y_a_221 + 10 x_a_221 <= 10
 c284: y_a_222 + 25 x_a_222 <= 25
 c285: y_a_223 + 6 x_a_223 <= 6
 c286: y_a_224 + 40 x_a_224 <= 40
 c287: y_a_225 + 12 x_a_225 <= 12
 c288: y_a_226 + 13 x_a_226 <= 13
 c289: y_a_227 + x_a_227 <= 1
 c290: y_a_228 + 4 x_a_228 <= 4
 c291: y_a_229 + 10 x_a_229 <= 10
 c292: y_a_230 + 18 x_a_230 <= 18
 c293: y_a_231 + x_a_231 <= 1
 c294: y_a_232 + 42 x_a_232 <= 42
 c295: y_a_233 + 24 x_a_233 <= 24
 c296: y_a_234 + 22 x_a_234 <= 22
 c297: y_a_235 + 39 x_a_235 <= 39
 c298: y_a_236 + 33 x_a_236 <= 33
 c299: y_a_237 + 44 x_a_237 <= 44
 c300: y_a_238 + 26 x_a_238 <= 26
 c301: y_a_239 + 43 x_a_239 <= 43
 c302: y_a_240 + 21 x_a_240 <= 21
 c303: y_a_241 + 26 x_a_241 <= 26
 c304: y_a_242 + 22 x_a_242 <= 22
 c305: y_a_243 + 46 x_a_243 <= 46
 c306: y_a_244 + 32 x_a_244 <= 32
 c307: y_a_245 + 16 x_a_245 <= 16
 c308: y_a_246 + 25 x_a_246 <= 25
 c309: y_a_247 + 19 x_a_247 <= 19
 c310: y_a_248 + 50000000 x_a_248 <= 50000000
 c311: y_a_249 + 50000000 x_a_249 <= 50000000
 c312: y_a_250 + 50000000 x_a_250 <= 50000000
 c313: y_a_251 + 50000000 x_a_251 <= 50000000
 c314: y_a_252 + 50000000 x_a_252 <= 50000000
 c315: y_a_253 + 50000000 x_a_253 <= 50000000
 c316: y_a_254 + 50000000 x_a_254 <= 50000000
 c317: y_a_255 + 50000000 x_a_255 <= 50000000
 c318: y_a_256 + 50000000 x_a_256 <= 50000000
 c319: y_a_257 + 50000000 x_a_257 <= 50000000
 c320: y_a_258 + 50000000 x_a_258 <= 50000000
 c321: y_a_259 + 50000000 x_a_259 <= 50000000
 c322: y_a_260 + 50000000 x_a_260 <= 50000000
 c323: y_a_261 + 50000000 x_a_261 <= 50000000
 c324: y_a_262 + 50000000 x_a_262 <= 50000000
 c325: y_a_263 + 50000000 x_a_263 <= 50000000
 c326: y_a_264 + 50000000 x_a_264 <= 50000000
 c327: y_a_265 + 50000000 x_a_265 <= 50000000
 c328: y_a_266 + 50000000 x_a_266 <= 50000000
 c329: y_a_267 + 50000000 x_a_267 <= 50000000
 c330: y_a_268 + 50000000 x_a_268 <= 50000000
 c331: y_a_269 + 50000000 x_a_269 <= 50000000
 c332: y_a_270 + 50000000 x_a_270 <= 50000000
 c333: y_a_271 + 50000000 x_a_271 <= 50000000
 c334: y_a_272 + 10000 x_a_272 <= 10000
Bounds
 0 <= x_a_0 <= 1
 0 <= x_a_1 <= 1
 0 <= x_a_2 <= 1
 0 <= x_a_3 <= 1
 0 <= x_a_4 <= 1
 0 <= x_a_5 <= 1
 0 <= x_a_6 <= 1
 0 <= x_a_7 <= 1
 0 <= x_a_8 <= 1
 0 <= x_a_9 <= 1
 0 <= x_a_10 <= 1
 0 <= x_a_11 <= 1
 0 <= x_a_12 <= 1
 0 <= x_a_13 <= 1
 0 <= x_a_14 <= 1
 0 <= x_a_15 <= 1
 0 <= x_a_16 <= 1
 0 <= x_a_17 <= 1
 0 <= x_a_18 <= 1
 0 <= x_a_19 <= 1
 0 <= x_a_20 <= 1
 0 <= x_a_21 <= 1
 0 <= x_a_22 <= 1
 0 <= x_a_23 <= 1
 0 <= x_a_24 <= 1
 0 <= x_a_25 <= 1
 0 <= x_a_26 <= 1
 0 <= x_a_27 <= 1
 0 <= x_a_28 <= 1
 0 <= x_a_29 <= 1
 0 <= x_a_30 <= 1
 0 <= x_a_31 <= 1
 0 <= x_a_32 <= 1
 0 <= x_a_33 <= 1
 0 <= x_a_34 <= 1
 0 <= x_a_35 <= 1
 0 <= x_a_36 <= 1
 0 <= x_a_37 <= 1
 0 <= x_a_38 <= 1
 0 <= x_a_39 <= 1
 0 <= x_a_40 <= 1
 0 <= x_a_41 <= 1
 0 <= x_a_42 <= 1
 0 <= x_a_43 <= 1
 0 <= x_a_44 <= 1
 0 <= x_a_45 <= 1
 0 <= x_a_46 <= 1
 0 <= x_a_47 <= 1
 0 <= x_a_48 <= 1
 0 <= x_a_49 <= 1
 0 <= x_a_50 <= 1
 0 <= x_a_51 <= 1
 0 <= x_a_52 <= 1
 0 <= x_a_53 <= 1
 0 <= x_a_54 <= 1
 0 <= x_a_55 <= 1
 0 <= x_a_56 <= 1
 0 <= x_a_57 <= 1
 0 <= x_a_58 <= 1
 0 <= x_a_59 <= 1
 0 <= x_a_60 <= 1
 0 <= x_a_61 <= 1
 0 <= x_a_62 <= 1
 0 <= x_a_63 <= 1
 0 <= x_a_64 <= 1
 0 <= x_a_65 <= 1
 0 <= x_a_66 <= 1
 0 <= x_a_67 <= 1
 0 <= x_a_68 <= 1
 0 <= x_a_69 <= 1
 0 <= x_a_70 <= 1
 0 <= x_a_71 <= 1
 0 <= x_a_72 <= 1
 0 <= x_a_73 <= 1
 0 <= x_a_74 <= 1
 0 <= x_a_75 <= 1
 0 <= x_a_76 <= 1
 0 <= x_a_77 <= 1
 0 <= x_a_78 <= 1
 0 <= x_a_79 <= 1
 0 <= x_a_80 <= 1
 0 <= x_a_81 <= 1
 0 <= x_a_82 <= 1
 0 <= x_a_83 <= 1
 0 <= x_a_84 <= 1
 0 <= x_a_85 <= 1
 0 <= x_a_86 <= 1
 0 <= x_a_87 <= 1
 0 <= x_a_88 <= 1
 0 <= x_a_89 <= 1
 0 <= x_a_90 <= 1
 0 <= x_a_91 <= 1
 0 <= x_a_92 <= 1
 0 <= x_a_93 <= 1
 0 <= x_a_94 <= 1
 0 <= x_a_95 <= 1
 0 <= x_a_96 <= 1
 0 <= x_a_97 <= 1
 0 <= x_a_98 <= 1
 0 <= x_a_99 <= 1
 0 <= x_a_100 <= 1
 0 <= x_a_101 <= 1
 0 <= x_a_102 <= 1
 0 <= x_a_103 <= 1
 0 <= x_a_104 <= 1
 0 <= x_a_105 <= 1
 0 <= x_a_106 <= 1
 0 <= x_a_107 <= 1
 0 <= x_a_108 <= 1
 0 <= x_a_109 <= 1
 0 <= x_a_110 <= 1
 0 <= x_a_111 <= 1
 0 <= x_a_112 <= 1
 0 <= x_a_113 <= 1
 0 <= x_a_114 <= 1
 0 <= x_a_115 <= 1
 0 <= x_a_116 <= 1
 0 <= x_a_117 <= 1
 0 <= x_a_118 <= 1
 0 <= x_a_119 <= 1
 0 <= x_a_120 <= 1
 0 <= x_a_121 <= 1
 0 <= x_a_122 <= 1
 0 <= x_a_123 <= 1
 0 <= x_a_124 <= 1
 0 <= x_a_125 <= 1
 0 <= x_a_126 <= 1
 0 <= x_a_127 <= 1
 0 <= x_a_128 <= 1
 0 <= x_a_129 <= 1
 0 <= x_a_130 <= 1
 0 <= x_a_131 <= 1
 0 <= x_a_132 <= 1
 0 <= x_a_133 <= 1
 0 <= x_a_134 <= 1
 0 <= x_a_135 <= 1
 0 <= x_a_136 <= 1
 0 <= x_a_137 <= 1
 0 <= x_a_138 <= 1
 0 <= x_a_139 <= 1
 0 <= x_a_140 <= 1
 0 <= x_a_141 <= 1
 0 <= x_a_142 <= 1
 0 <= x_a_143 <= 1
 0 <= x_a_144 <= 1
 0 <= x_a_145 <= 1
 0 <= x_a_146 <= 1
 0 <= x_a_147 <= 1
 0 <= x_a_148 <= 1
 0 <= x_a_149 <= 1
 0 <= x_a_150 <= 1
 0 <= x_a_151 <= 1
 0 <= x_a_152 <= 1
 0 <= x_a_153 <= 1
 0 <= x_a_154 <= 1
 0 <= x_a_155 <= 1
 0 <= x_a_156 <= 1
 0 <= x_a_157 <= 1
 0 <= x_a_158 <= 1
 0 <= x_a_159 <= 1
 0 <= x_a_160 <= 1
 0 <= x_a_161 <= 1
 0 <= x_a_162 <= 1
 0 <= x_a_163 <= 1
 0 <= x_a_164 <= 1
 0 <= x_a_165 <= 1
 0 <= x_a_166 <= 1
 0 <= x_a_167 <= 1
 0 <= x_a_168 <= 1
 0 <= x_a_169 <= 1
 0 <= x_a_170 <= 1
 0 <= x_a_171 <= 1
 0 <= x_a_172 <= 1
 0 <= x_a_173 <= 1
 0 <= x_a_174 <= 1
 0 <= x_a_175 <= 1
 0 <= x_a_176 <= 1
 0 <= x_a_177 <= 1
 0 <= x_a_178 <= 1
 0 <= x_a_179 <= 1
 0 <= x_a_180 <= 1
 0 <= x_a_181 <= 1
 0 <= x_a_182 <= 1
 0 <= x_a_183 <= 1
 0 <= x_a_184 <= 1
 0 <= x_a_185 <= 1
 0 <= x_a_186 <= 1
 0 <= x_a_187 <= 1
 0 <= x_a_188 <= 1
 0 <= x_a_189 <= 1
 0 <= x_a_190 <= 1
 0 <= x_a_191 <= 1
 0 <= x_a_192 <= 1
 0 <= x_a_193 <= 1
 0 <= x_a_194 <= 1
 0 <= x_a_195 <= 1
 0 <= x_a_196 <= 1
 0 <= x_a_197 <= 1
 0 <= x_a_198 <= 1
 0 <= x_a_199 <= 1
 0 <= x_a_200 <= 1
 0 <= x_a_201 <= 1
 0 <= x_a_202 <= 1
 0 <= x_a_203 <= 1
 0 <= x_a_204 <= 1
 0 <= x_a_205 <= 1
 0 <= x_a_206 <= 1
 0 <= x_a_207 <= 1
 0 <= x_a_208 <= 1
 0 <= x_a_209 <= 1
 0 <= x_a_210 <= 1
 0 <= x_a_211 <= 1
 0 <= x_a_212 <= 1
 0 <= x_a_213 <= 1
 0 <= x_a_214 <= 1
 0 <= x_a_215 <= 1
 0 <= x_a_216 <= 1
 0 <= x_a_217 <= 1
 0 <= x_a_218 <= 1
 0 <= x_a_219 <= 1
 0 <= x_a_220 <= 1
 0 <= x_a_221 <= 1
 0 <= x_a_222 <= 1
 0 <= x_a_223 <= 1
 0 <= x_a_224 <= 1
 0 <= x_a_225 <= 1
 0 <= x_a_226 <= 1
 0 <= x_a_227 <= 1
 0 <= x_a_228 <= 1
 0 <= x_a_229 <= 1
 0 <= x_a_230 <= 1
 0 <= x_a_231 <= 1
 0 <= x_a_232 <= 1
 0 <= x_a_233 <= 1
 0 <= x_a_234 <= 1
 0 <= x_a_235 <= 1
 0 <= x_a_236 <= 1
 0 <= x_a_237 <= 1
 0 <= x_a_238 <= 1
 0 <= x_a_239 <= 1
 0 <= x_a_240 <= 1
 0 <= x_a_241 <= 1
 0 <= x_a_242 <= 1
 0 <= x_a_243 <= 1
 0 <= x_a_244 <= 1
 0 <= x_a_245 <= 1
 0 <= x_a_246 <= 1
 0 <= x_a_247 <= 1
 0 <= x_a_248 <= 1
 0 <= x_a_249 <= 1
 0 <= x_a_250 <= 1
 0 <= x_a_251 <= 1
 0 <= x_a_252 <= 1
 0 <= x_a_253 <= 1
 0 <= x_a_254 <= 1
 0 <= x_a_255 <= 1
 0 <= x_a_256 <= 1
 0 <= x_a_257 <= 1
 0 <= x_a_258 <= 1
 0 <= x_a_259 <= 1
 0 <= x_a_260 <= 1
 0 <= x_a_261 <= 1
 0 <= x_a_262 <= 1
 0 <= x_a_263 <= 1
 0 <= x_a_264 <= 1
 0 <= x_a_265 <= 1
 0 <= x_a_266 <= 1
 0 <= x_a_267 <= 1
 0 <= x_a_268 <= 1
 0 <= x_a_269 <= 1
 0 <= x_a_270 <= 1
 0 <= x_a_271 <= 1
 0 <= x_a_272 <= 1
Binaries
 x_a_0  x_a_1  x_a_2  x_a_3  x_a_4  x_a_5  x_a_6  x_a_7  x_a_8  x_a_9  x_a_10 
 x_a_11  x_a_12  x_a_13  x_a_14  x_a_15  x_a_16  x_a_17  x_a_18  x_a_19 
 x_a_20  x_a_21  x_a_22  x_a_23  x_a_24  x_a_25  x_a_26  x_a_27  x_a_28 
 x_a_29  x_a_30  x_a_31  x_a_32  x_a_33  x_a_34  x_a_35  x_a_36  x_a_37 
 x_a_38  x_a_39  x_a_40  x_a_41  x_a_42  x_a_43  x_a_44  x_a_45  x_a_46 
 x_a_47  x_a_48  x_a_49  x_a_50  x_a_51  x_a_52  x_a_53  x_a_54  x_a_55 
 x_a_56  x_a_57  x_a_58  x_a_59  x_a_60  x_a_61  x_a_62  x_a_63  x_a_64 
 x_a_65  x_a_66  x_a_67  x_a_68  x_a_69  x_a_70  x_a_71  x_a_72  x_a_73 
 x_a_74  x_a_75  x_a_76  x_a_77  x_a_78  x_a_79  x_a_80  x_a_81  x_a_82 
 x_a_83  x_a_84  x_a_85  x_a_86  x_a_87  x_a_88  x_a_89  x_a_90  x_a_91 
 x_a_92  x_a_93  x_a_94  x_a_95  x_a_96  x_a_97  x_a_98  x_a_99  x_a_100 
 x_a_101  x_a_102  x_a_103  x_a_104  x_a_105  x_a_106  x_a_107  x_a_108 
 x_a_109  x_a_110  x_a_111  x_a_112  x_a_113  x_a_114  x_a_115  x_a_116 
 x_a_117  x_a_118  x_a_119  x_a_120  x_a_121  x_a_122  x_a_123  x_a_124 
 x_a_125  x_a_126  x_a_127  x_a_128  x_a_129  x_a_130  x_a_131  x_a_132 
 x_a_133  x_a_134  x_a_135  x_a_136  x_a_137  x_a_138  x_a_139  x_a_140 
 x_a_141  x_a_142  x_a_143  x_a_144  x_a_145  x_a_146  x_a_147  x_a_148 
 x_a_149  x_a_150  x_a_151  x_a_152  x_a_153  x_a_154  x_a_155  x_a_156 
 x_a_157  x_a_158  x_a_159  x_a_160  x_a_161  x_a_162  x_a_163  x_a_164 
 x_a_165  x_a_166  x_a_167  x_a_168  x_a_169  x_a_170  x_a_171  x_a_172 
 x_a_173  x_a_174  x_a_175  x_a_176  x_a_177  x_a_178  x_a_179  x_a_180 
 x_a_181  x_a_182  x_a_183  x_a_184  x_a_185  x_a_186  x_a_187  x_a_188 
 x_a_189  x_a_190  x_a_191  x_a_192  x_a_193  x_a_194  x_a_195  x_a_196 
 x_a_197  x_a_198  x_a_199  x_a_200  x_a_201  x_a_202  x_a_203  x_a_204 
 x_a_205  x_a_206  x_a_207  x_a_208  x_a_209  x_a_210  x_a_211  x_a_212 
 x_a_213  x_a_214  x_a_215  x_a_216  x_a_217  x_a_218  x_a_219  x_a_220 
 x_a_221  x_a_222  x_a_223  x_a_224  x_a_225  x_a_226  x_a_227  x_a_228 
 x_a_229  x_a_230  x_a_231  x_a_232  x_a_233  x_a_234  x_a_235  x_a_236 
 x_a_237  x_a_238  x_a_239  x_a_240  x_a_241  x_a_242  x_a_243  x_a_244 
 x_a_245  x_a_246  x_a_247  x_a_248  x_a_249  x_a_250  x_a_251  x_a_252 
 x_a_253  x_a_254  x_a_255  x_a_256  x_a_257  x_a_258  x_a_259  x_a_260 
 x_a_261  x_a_262  x_a_263  x_a_264  x_a_265  x_a_266  x_a_267  x_a_268 
 x_a_269  x_a_270  x_a_271  x_a_272 
End
